(declare-fun e () String)
(declare-fun c () String)
(declare-fun g () String)
(declare-fun b () String)
(declare-fun d () String)
(declare-fun f () String)
(declare-fun a () String)
(declare-fun h () String)
(assert (= d (str.++ "c" g "e" c "hc")))
(assert (= "b" (str.++ a c h)))
(assert (= (str.++ g d f) (str.++ b e e "g")))

(check-sat)
